NAME          DCAP_3_4_2_500_SS369
ROWS
 N  OBJ
 L  CON1
 L  CON2
 L  CON3
 L  CON4
 L  CON5
 L  CON6
 L  CON7
 L  CON8
 L  CON9
 L  CON10
 L  CON11
 L  CON12
 E  CON13
 E  CON14
 E  CON15
 E  CON16
 E  CON17
 E  CON18
 E  CON19
 E  CON20
COLUMNS
    x[1,1]    OBJ       6.180167      CON1      1.000000    
    x[1,1]    CON7      -1.000000     CON8      -1.000000   
    x[1,2]    OBJ       5.039546      CON2      1.000000    
    x[1,2]    CON8      -1.000000   
    x[2,1]    OBJ       6.732585      CON3      1.000000    
    x[2,1]    CON9      -1.000000     CON10     -1.000000   
    x[2,2]    OBJ       7.443064      CON4      1.000000    
    x[2,2]    CON10     -1.000000   
    x[3,1]    OBJ       6.563535      CON5      1.000000    
    x[3,1]    CON11     -1.000000     CON12     -1.000000   
    x[3,2]    OBJ       6.054841      CON6      1.000000    
    x[3,2]    CON12     -1.000000   
    MARKER    'MARKER'                'INTORG'
    u[1,1]    OBJ       48.076654     CON1      -1.000000   
    u[1,2]    OBJ       49.466655     CON2      -1.000000   
    u[2,1]    OBJ       49.996186     CON3      -1.000000   
    u[2,2]    OBJ       32.230043     CON4      -1.000000   
    u[3,1]    OBJ       20.066487     CON5      -1.000000   
    u[3,2]    OBJ       27.484319     CON6      -1.000000   
    y[1,1,1]  OBJ       8.015399      CON7      0.678800    
    y[1,1,1]  CON13     1.000000    
    y[1,1,2]  OBJ       5.781979      CON8      0.775085    
    y[1,1,2]  CON14     1.000000    
    y[1,2,1]  OBJ       9.394602      CON7      1.012797    
    y[1,2,1]  CON15     1.000000    
    y[1,2,2]  OBJ       7.517977      CON8      0.876615    
    y[1,2,2]  CON16     1.000000    
    y[1,3,1]  OBJ       6.273585      CON7      1.391597    
    y[1,3,1]  CON17     1.000000    
    y[1,3,2]  OBJ       9.984184      CON8      0.741754    
    y[1,3,2]  CON18     1.000000    
    y[1,4,1]  OBJ       8.957940      CON7      0.860021    
    y[1,4,1]  CON19     1.000000    
    y[1,4,2]  OBJ       9.940910      CON8      0.974681    
    y[1,4,2]  CON20     1.000000    
    y[2,1,1]  OBJ       7.161873      CON9      0.678800    
    y[2,1,1]  CON13     1.000000    
    y[2,1,2]  OBJ       9.875163      CON10     0.775085    
    y[2,1,2]  CON14     1.000000    
    y[2,2,1]  OBJ       7.366745      CON9      1.012797    
    y[2,2,1]  CON15     1.000000    
    y[2,2,2]  OBJ       6.152493      CON10     0.876615    
    y[2,2,2]  CON16     1.000000    
    y[2,3,1]  OBJ       6.895953      CON9      1.391597    
    y[2,3,1]  CON17     1.000000    
    y[2,3,2]  OBJ       8.494262      CON10     0.741754    
    y[2,3,2]  CON18     1.000000    
    y[2,4,1]  OBJ       6.689133      CON9      0.860021    
    y[2,4,1]  CON19     1.000000    
    y[2,4,2]  OBJ       8.878435      CON10     0.974681    
    y[2,4,2]  CON20     1.000000    
    y[3,1,1]  OBJ       5.063244      CON11     0.678800    
    y[3,1,1]  CON13     1.000000    
    y[3,1,2]  OBJ       6.734715      CON12     0.775085    
    y[3,1,2]  CON14     1.000000    
    y[3,2,1]  OBJ       6.533876      CON11     1.012797    
    y[3,2,1]  CON15     1.000000    
    y[3,2,2]  OBJ       7.370319      CON12     0.876615    
    y[3,2,2]  CON16     1.000000    
    y[3,3,1]  OBJ       5.253197      CON11     1.391597    
    y[3,3,1]  CON17     1.000000    
    y[3,3,2]  OBJ       7.388718      CON12     0.741754    
    y[3,3,2]  CON18     1.000000    
    y[3,4,1]  OBJ       7.996214      CON11     0.860021    
    y[3,4,1]  CON19     1.000000    
    y[3,4,2]  OBJ       9.604285      CON12     0.974681    
    y[3,4,2]  CON20     1.000000    
    z[1,1]    OBJ       946.514883    CON13     1.000000    
    z[1,2]    OBJ       818.688938    CON14     1.000000    
    z[2,1]    OBJ       616.811092    CON15     1.000000    
    z[2,2]    OBJ       576.820428    CON16     1.000000    
    z[3,1]    OBJ       945.110683    CON17     1.000000    
    z[3,2]    OBJ       543.528360    CON18     1.000000    
    z[4,1]    OBJ       848.247244    CON19     1.000000    
    z[4,2]    OBJ       789.283255    CON20     1.000000    
    MARKER    'MARKER'                 'INTEND'
RHS
    RHS       CON1      -0.000000     CON2      -0.000000   
    RHS       CON3      -0.000000     CON4      -0.000000   
    RHS       CON5      -0.000000     CON6      -0.000000   
    RHS       CON7      -0.000000     CON8      -0.000000   
    RHS       CON9      -0.000000     CON10     -0.000000   
    RHS       CON11     -0.000000     CON12     -0.000000   
    RHS       CON13     1.000000      CON14     1.000000    
    RHS       CON15     1.000000      CON16     1.000000    
    RHS       CON17     1.000000      CON18     1.000000    
    RHS       CON19     1.000000      CON20     1.000000    
BOUNDS
 BV BOUND     u[1,1]  
 BV BOUND     u[1,2]  
 BV BOUND     u[2,1]  
 BV BOUND     u[2,2]  
 BV BOUND     u[3,1]  
 BV BOUND     u[3,2]  
 BV BOUND     y[1,1,1]
 BV BOUND     y[1,1,2]
 BV BOUND     y[1,2,1]
 BV BOUND     y[1,2,2]
 BV BOUND     y[1,3,1]
 BV BOUND     y[1,3,2]
 BV BOUND     y[1,4,1]
 BV BOUND     y[1,4,2]
 BV BOUND     y[2,1,1]
 BV BOUND     y[2,1,2]
 BV BOUND     y[2,2,1]
 BV BOUND     y[2,2,2]
 BV BOUND     y[2,3,1]
 BV BOUND     y[2,3,2]
 BV BOUND     y[2,4,1]
 BV BOUND     y[2,4,2]
 BV BOUND     y[3,1,1]
 BV BOUND     y[3,1,2]
 BV BOUND     y[3,2,1]
 BV BOUND     y[3,2,2]
 BV BOUND     y[3,3,1]
 BV BOUND     y[3,3,2]
 BV BOUND     y[3,4,1]
 BV BOUND     y[3,4,2]
 BV BOUND     z[1,1]  
 BV BOUND     z[1,2]  
 BV BOUND     z[2,1]  
 BV BOUND     z[2,2]  
 BV BOUND     z[3,1]  
 BV BOUND     z[3,2]  
 BV BOUND     z[4,1]  
 BV BOUND     z[4,2]  
ENDATA
